solution status: node limit reached
objective value:                                   48
x#1                                                 1 	(obj:0)
x#2                                                 1 	(obj:0)
x#3                                                 1 	(obj:0)
x#4                                                 1 	(obj:0)
x#5                                                 1 	(obj:0)
x#6                                                 1 	(obj:0)
x#7                                                 1 	(obj:0)
x#11                                                1 	(obj:0)
x#12                                                1 	(obj:0)
x#14                                                1 	(obj:0)
x#17                                                1 	(obj:0)
x#22                                                1 	(obj:0)
x#24                                                1 	(obj:0)
x#26                                                1 	(obj:0)
x#31                                                1 	(obj:0)
x#40                                                1 	(obj:0)
x#42                                                1 	(obj:0)
x#43                                                1 	(obj:0)
x#44                                                1 	(obj:0)
x#46                                                1 	(obj:0)
x#47                                                1 	(obj:0)
x#48                                                1 	(obj:0)
x#50                                                1 	(obj:0)
x#51                                                1 	(obj:0)
x#52                                                1 	(obj:0)
x#53                                                1 	(obj:0)
x#54                                                1 	(obj:0)
x#55                                                1 	(obj:0)
x#56                                                1 	(obj:0)
x#57                                                1 	(obj:0)
x#59                                                1 	(obj:0)
x#61                                                1 	(obj:0)
x#62                                                1 	(obj:0)
x#63                                                1 	(obj:0)
x#64                                                1 	(obj:0)
x#65                                                1 	(obj:0)
x#67                                                1 	(obj:0)
x#68                                                1 	(obj:0)
x#73                                                1 	(obj:0)
x#85                                                1 	(obj:0)
x#88                                                1 	(obj:0)
x#89                                                1 	(obj:0)
x#90                                                1 	(obj:0)
x#92                                                1 	(obj:0)
x#93                                                1 	(obj:0)
x#94                                                1 	(obj:0)
x#95                                                1 	(obj:0)
x#96                                                1 	(obj:0)
x#99                                                1 	(obj:0)
x#100                                               1 	(obj:0)
x#102                                               1 	(obj:0)
x#103                                               1 	(obj:0)
x#108                                               1 	(obj:0)
x#109                                               1 	(obj:0)
x#110                                               1 	(obj:0)
x#111                                               1 	(obj:0)
x#112                                               1 	(obj:0)
x#113                                               1 	(obj:0)
x#117                                               1 	(obj:0)
x#118                                               1 	(obj:0)
x#119                                               1 	(obj:0)
x#120                                               1 	(obj:0)
x#121                                               1 	(obj:0)
x#122                                               1 	(obj:0)
x#123                                               1 	(obj:0)
x#129                                               1 	(obj:0)
x#134                                               1 	(obj:0)
x#136                                               1 	(obj:0)
z#1                                                 1 	(obj:1)
z#2                                                 1 	(obj:1)
z#3                                                 1 	(obj:1)
z#4                                                 1 	(obj:1)
z#6                                                 1 	(obj:1)
z#11                                                1 	(obj:1)
z#12                                                1 	(obj:1)
z#14                                                1 	(obj:1)
z#17                                                1 	(obj:1)
z#22                                                1 	(obj:1)
z#26                                                1 	(obj:1)
z#31                                                1 	(obj:1)
z#40                                                1 	(obj:1)
z#42                                                1 	(obj:1)
z#43                                                1 	(obj:1)
z#44                                                1 	(obj:1)
z#48                                                1 	(obj:1)
z#50                                                1 	(obj:1)
z#51                                                1 	(obj:1)
z#52                                                1 	(obj:1)
z#53                                                1 	(obj:1)
z#54                                                1 	(obj:1)
z#61                                                1 	(obj:1)
z#62                                                1 	(obj:1)
z#63                                                1 	(obj:1)
z#64                                                1 	(obj:1)
z#67                                                1 	(obj:1)
z#68                                                1 	(obj:1)
z#73                                                1 	(obj:1)
z#89                                                1 	(obj:1)
z#90                                                1 	(obj:1)
z#93                                                1 	(obj:1)
z#96                                                1 	(obj:1)
z#99                                                1 	(obj:1)
z#100                                               1 	(obj:1)
z#102                                               1 	(obj:1)
z#108                                               1 	(obj:1)
z#110                                               1 	(obj:1)
z#111                                               1 	(obj:1)
z#112                                               1 	(obj:1)
z#113                                               1 	(obj:1)
z#118                                               1 	(obj:1)
z#119                                               1 	(obj:1)
z#120                                               1 	(obj:1)
z#121                                               1 	(obj:1)
z#122                                               1 	(obj:1)
z#134                                               1 	(obj:1)
z#136                                               1 	(obj:1)
